Version identifier: 22.1.0.0 | 2022-03-09 | 1a383f8ce
CPXPARAM_Threads                                 1
CPXPARAM_MIP_Strategy_VariableSelect             3
CPXPARAM_TimeLimit                               599.99997107399997
1 of 1 MIP starts provided solutions.
MIP start 'm1' defined initial solution with objective 153.0000.
Tried aggregator 1 time.
MIP Presolve eliminated 19 rows and 648 columns.
MIP Presolve modified 207 coefficients.
Reduced MIP has 1506 rows, 2160 columns, and 41630 nonzeros.
Reduced MIP has 2160 binaries, 0 generals, 0 SOSs, and 0 indicators.
Presolve time = 0.05 sec. (89.88 ticks)
Probing time = 0.01 sec. (9.56 ticks)
Tried aggregator 1 time.
Detecting symmetries...
MIP Presolve modified 11 coefficients.
Reduced MIP has 1506 rows, 2160 columns, and 41810 nonzeros.
Reduced MIP has 2160 binaries, 0 generals, 0 SOSs, and 0 indicators.
Presolve time = 0.03 sec. (60.23 ticks)
Probing time = 0.01 sec. (9.58 ticks)
Clique table members: 1105.
MIP emphasis: balance optimality and feasibility.
MIP search method: dynamic search.
Parallel mode: none, using 1 thread.
Root relaxation solution time = 0.05 sec. (57.34 ticks)

        Nodes                                         Cuts/
   Node  Left     Objective  IInf  Best Integer    Best Bound    ItCnt     Gap

*     0+    0                          153.0000    23436.0000              --- 
      0     0      216.0000   130      153.0000      216.0000      815   41.18%
*     0+    0                          216.0000      216.0000             0.00%
      0     0        cutoff            216.0000      216.0000      815    0.00%
Elapsed time = 0.28 sec. (344.12 ticks, tree = 0.01 MB, solutions = 2)

Root node processing (before b&c):
  Real time             =    0.28 sec. (344.36 ticks)
Sequential b&c:
  Real time             =    0.00 sec. (0.00 ticks)
                          ------------
Total (root+branch&cut) =    0.28 sec. (344.36 ticks)
Primal:	216
Dual:	216
Status:	Optimal
Time:	0.29
Sequence:
	9
	5
	9
	1
	9
	9
	11
	9
	1
	0
	5
	9
	4
	3
	9
	4
	9
	4
	4
	11
	4
	9
	9
	5
	9
	9
	3
	9
	1
	9
	9
	9
	5
	0
	11
	9
	4
	5
	9
	5
	4
	11
	4
	4
	0
	5
	4
	9
	4
	4
	3
	4
	4
	9
	5
	4
	11
	4
	4
	0
	6
	4
	11
	2
	6
	4
	0
	4
	4
	0
	1
	4
	0
	5
	4
	11
	4
	9
	1
	4
	4
	0
	11
	4
	0
	4
	4
	0
	3
	4
	4
	1
	4
	0
	4
	4
	3
	4
	0
	5
	9
	0
	3
	9
	4
	4
	9
	0
	5
	4
	11
	0
	4
	9
	0
	1
	9
	0
	11
	9
	0
	9
	9
	0
	9
	3
	0
	5
	9
	0
	9
	11
	9
	0
	9
	4
	5
	0
	3
	9
	5
	9
	1
	0
	11
	9
	0
	9
	5
	0
	1
	9
	11
	2
	4
	1
	0
	9
	5
	0
	9
	11
	0
	1
	9
	0
	9
	3
	0
	9
	9
	0
	9
	9
	0
	9
	3
	9
	9
	9
	1
	9
	3
	9
	5
	9
	5
	4
	11
	4
	0
	4
	5
	9
	4
	4
	3
	4
	4
	0
	4
	4
	9
	2
	4
	11
	4
	2
	4
	4
	1
	4
	0
	4
	4
	3
